% instance #1
demijohns(10, 1000).
batch(375, 24, 6, 3).
batch(1000, 32, 8, 3).
boxSize(20, 17, 35, 10).
boxSize(13, 13, 25, 40).


% instance #2
demijohns(10, 1000).
batch(1000, 32, 8, 6).
boxSize(13, 13, 25, 40).
boxSize(20, 17, 35, 10).


% instance #3
demijohns(10, 1000).
batch(375, 24, 6, 2).
batch(1000, 32, 8, 4).
boxSize(13, 13, 25, 40).
boxSize(20, 17, 35, 10).


% instance #4
demijohns(10, 1000).
batch(375, 24, 6, 2).
batch(1000, 32, 8, 4).
boxSize(20, 17, 35, 10).
boxSize(13, 13, 25, 40).


% instance #5
demijohns(10, 1000).
batch(375, 24, 6, 5).
batch(1000, 32, 8, 1).
boxSize(20, 17, 35, 10).
boxSize(13, 13, 25, 40).


% instance #6
demijohns(10, 1000).
batch(375, 24, 6, 2).
batch(1000, 32, 8, 4).
boxSize(20, 17, 35, 10).
boxSize(13, 13, 25, 40).


% instance #7
demijohns(10, 1000).
batch(375, 24, 6, 4).
batch(1000, 32, 8, 2).
boxSize(13, 13, 25, 40).
boxSize(20, 17, 35, 10).


% instance #8
demijohns(10, 1000).
batch(375, 24, 6, 2).
batch(1000, 32, 8, 4).
boxSize(13, 13, 25, 40).
boxSize(20, 17, 35, 10).


% instance #9
demijohns(10, 1000).
batch(375, 24, 6, 6).
boxSize(20, 17, 35, 10).
boxSize(13, 13, 25, 40).


% instance #10
demijohns(10, 1000).
batch(375, 24, 6, 5).
batch(1000, 32, 8, 1).
boxSize(13, 13, 25, 40).
boxSize(20, 17, 35, 10).


